solution status: optimal solution found
objective value:                                   30
x33                                                 1 	(obj:1)
x37                                                 1 	(obj:1)
x40                                                 1 	(obj:1)
x41                                                 1 	(obj:1)
x42                                                 1 	(obj:1)
x44                                                 1 	(obj:1)
x46                                                 1 	(obj:1)
x50                                                 1 	(obj:1)
x51                                                 1 	(obj:1)
x52                                                 1 	(obj:1)
x53                                                 1 	(obj:1)
x54                                                 1 	(obj:1)
x55                                                 1 	(obj:1)
x58                                                 1 	(obj:1)
x60                                                 1 	(obj:1)
x66                                                 1 	(obj:1)
x68                                                 1 	(obj:1)
x69                                                 1 	(obj:1)
x71                                                 1 	(obj:1)
x79                                                 1 	(obj:1)
x81                                                 1 	(obj:1)
x82                                                 1 	(obj:1)
x84                                                 1 	(obj:1)
x85                                                 1 	(obj:1)
x87                                                 1 	(obj:1)
x89                                                 1 	(obj:1)
x91                                                 1 	(obj:1)
x92                                                 1 	(obj:1)
x93                                                 1 	(obj:1)
x96                                                 1 	(obj:1)
one.ctrl_s[2].hole_y                                5 	(obj:0)
one.ctrl_s[2].hole_z                               12 	(obj:0)
one.ctrl_s[2].flush_y                              17 	(obj:0)
one.ctrl_s[2].flush_z                               7 	(obj:0)
one.thingy.devices[3].thingy.v7_y                   14 	(obj:0)
one.thingy.devices[3].thingy.v7_z                   11 	(obj:0)
one.thingy.devices[0].thingy.v7_y                    9 	(obj:0)
one.thingy.devices[0].thingy.v7_z                   16 	(obj:0)
one.thingy.devices[1].thingy.v9_y                   10 	(obj:0)
one.thingy.devices[1].thingy.v9_z                   13 	(obj:0)
one.thingy.devices[0].thingy.v8_y                    9 	(obj:0)
one.thingy.devices[0].thingy.v8_z                   19 	(obj:0)
one.thingy.devices[0].thingy.v9_y                    9 	(obj:0)
one.thingy.devices[0].thingy.v9_z                   13 	(obj:0)
one.thingy.devices[3].thingy.v8_y                   16 	(obj:0)
one.thingy.devices[3].thingy.v8_z                   11 	(obj:0)
one.thingy.devices[2].thingy.v9_y                   11 	(obj:0)
one.thingy.devices[2].thingy.v9_z                   13 	(obj:0)
one.thingy.devices[1].thingy.v7_y                   12 	(obj:0)
one.thingy.devices[1].thingy.v7_z                   17 	(obj:0)
one.thingy.devices[2].thingy.v8_y                   16 	(obj:0)
one.thingy.devices[2].thingy.v8_z                   15 	(obj:0)
one.thingy.devices[3].thingy.v9_y                   13 	(obj:0)
one.thingy.devices[3].thingy.v9_z                   11 	(obj:0)
one.thingy.devices[1].thingy.v8_y                   13 	(obj:0)
one.thingy.devices[1].thingy.v8_z                   19 	(obj:0)
one.thingy.devices[2].thingy.v7_y                   15 	(obj:0)
one.thingy.devices[2].thingy.v7_z                   15 	(obj:0)
